CMPL model generation - running

CMPL version: 1.11.0
Authors: Thomas Schleiff, Mike Steglich
Distributed under the GPLv3 

create model instance ...
write model instance ...
CMPL model generation - finished

Solver - running


Welcome to IBM(R) ILOG(R) CPLEX(R) Interactive Optimizer 12.7.1.0
  with Simplex, Mixed Integer & Barrier Optimizers
5725-A06 5725-A29 5724-Y48 5724-Y49 5724-Y54 5724-Y55 5655-Y21
Copyright IBM Corp. 1988, 2017.  All Rights Reserved.

Type 'help' for a list of available commands.
Type 'help' followed by a command name for more
information on commands.

CPLEX> Specified objective sense: MINIMIZE
Selected objective  name:  line[1]
Selected RHS        name:  RHS
Selected bound      name:  BOUND
Problem '/tmp/cmpl.T23705.mps' read.
Read time = 0.05 sec. (8.17 ticks)
CPLEX> CPXPARAM_Read_APIEncoding                        "UTF-8"
Tried aggregator 3 times.
MIP Presolve eliminated 19290 rows and 30791 columns.
MIP Presolve modified 340 coefficients.
Aggregator did 592 substitutions.
Reduced MIP has 2473 rows, 3210 columns, and 9380 nonzeros.
Reduced MIP has 3042 binaries, 0 generals, 0 SOSs, and 0 indicators.
Presolve time = 0.06 sec. (40.27 ticks)
Found incumbent of value 327.383073 after 0.09 sec. (57.85 ticks)
Probing fixed 4 vars, tightened 0 bounds.
Probing time = 0.01 sec. (4.12 ticks)
Tried aggregator 1 time.
MIP Presolve eliminated 0 rows and 4 columns.
MIP Presolve modified 16 coefficients.
Reduced MIP has 2473 rows, 3206 columns, and 9372 nonzeros.
Reduced MIP has 3206 binaries, 0 generals, 0 SOSs, and 0 indicators.
Presolve time = 0.01 sec. (7.98 ticks)
Probing time = 0.01 sec. (2.66 ticks)
Clique table members: 5786.
MIP emphasis: balance optimality and feasibility.
MIP search method: dynamic search.
Parallel mode: none, using 1 thread.
Root relaxation solution time = 0.01 sec. (4.28 ticks)

        Nodes                                         Cuts/
   Node  Left     Objective  IInf  Best Integer    Best Bound    ItCnt     Gap

*     0+    0                          327.3831      -42.2148           112.89%
      0     0       57.1361    14      327.3831       57.1361       80   82.55%
*     0+    0                           69.4307       57.1361            17.71%
*     0+    0                           57.5361       57.1361             0.70%
      0     0       57.4786     2       57.5361      Cuts: 19       85    0.10%
*     0+    0                           57.5099       57.4786             0.05%
      0     0        cutoff             57.5099                     88    0.00%
Elapsed time = 0.18 sec. (102.75 ticks, tree = 0.01 MB, solutions = 4)

GUB cover cuts applied:  1
Clique cuts applied:  7
Cover cuts applied:  13
Gomory fractional cuts applied:  7

Root node processing (before b&c):
  Real time             =    0.18 sec. (104.47 ticks)
Sequential b&c:
  Real time             =    0.00 sec. (0.00 ticks)
                          ------------
Total (root+branch&cut) =    0.18 sec. (104.47 ticks)

Solution pool: 4 solutions saved.

MIP - Integer optimal solution:  Objective =  5.7509891000e+01
Solution time =    0.18 sec.  Iterations = 88  Nodes = 0
Deterministic time = 104.57 ticks  (585.86 ticks/sec)

CPLEX> Incumbent solution written to file '/tmp/cmpl.T23705.gsol'.
CPLEX> 
CMPL: Time used for model generation: 1 seconds
CMPL: Time used for solving the model: 0 seconds


Solution written to ASCII file: results/output_generated_conf_0.2/2017-06-05-4/fair-nonlinear.sol

Solver - finished
